21946
21716
21716
21464
21814
22176
22176
21799
22493
22525
40767
41700
41560
41630
41041
41058
41062
42719
42719
42230
57494
60603
60027
60776
60776
60011
60011
59064
59064
60603
